; benchmark generated from python API
(set-info :status unknown)
(declare-datatypes ((RealState 0)) (((RMk1 (rval1 Real)) (RMk2 (rval2 Real)))))
 (assert
 (forall ((|v17:0| Real) )(forall ((|v16:1| Real) )(forall ((|v15:2| Real) )(forall ((|v14:3| Real) )(forall ((|v13:4| Real) )(forall ((|v12:5| Real) )(exists ((|v11:6_st| RealState) (val!10092 Real) )(exists ((|v10:7_st| RealState) (val!10093 Real) )(exists ((|v9:8_st| RealState) (val!10094 Real) )(exists ((|v8:9_st| RealState) (val!10095 Real) )(exists ((|v7:10_st| RealState) (val!10096 Real) )(exists ((|v6:11_st| RealState) (val!10097 Real) )(forall ((|v5:12| Real) )(forall ((|v4:13| Real) )(forall ((|v3:14| Real) )(forall ((|v2:15| Real) )(forall ((|v1:16| Real) )(forall ((|v0:17| Real) )(let ((?x9311 (* 20.0 |v14:3|)))
 (let ((?x9214 (rval2 |v8:9_st|)))
 (let ((?x8494 (* 17.0 ?x9214)))
 (let ((?x4788 (* 20.0 |v2:15|)))
 (let ((?x4383 (rval2 |v6:11_st|)))
 (let ((?x3237 (- 14.0)))
 (let ((?x6072 (* ?x3237 ?x4383)))
 (let ((?x6341 (+ (+ (+ (* (- 16.0) |v4:13|) (* 19.0 |v12:5|)) (* 19.0 ?x9214)) ?x6072)))
 (let ((?x138 (* 15.0 |v13:4|)))
 (let ((?x7697 (* ?x3237 |v3:14|)))
 (let ((?x3704 (rval2 |v10:7_st|)))
 (let ((?x7876 (- 9.0)))
 (let ((?x9269 (* ?x7876 ?x3704)))
 (let ((?x2681 (+ (+ (+ (+ (* (- 5.0) |v12:5|) (* (- 7.0) |v4:13|)) ?x9269) ?x7697) ?x138)))
 (let ((?x7358 (rval2 |v9:8_st|)))
 (let ((?x451 (* 9.0 ?x7358)))
 (let ((?x1687 (- 5.0)))
 (let ((?x1601 (* ?x1687 |v0:17|)))
 (let ((?x6933 (+ (+ (+ (+ (+ (* 4.0 |v2:15|) (* 17.0 |v14:3|)) ?x9311) ?x1601) ?x451) (* (- 2.0) |v17:0|))))
 (let (($x4954 (and (<= (+ ?x6933 (* (- 15.0) |v15:2|)) 3.0) (<= (+ (+ ?x2681 (* 2.0 |v16:1|)) (* 20.0 |v13:4|)) 17.0))))
 (let ((?x5786 (- 18.0)))
 (let ((?x8911 (* 15.0 ?x7358)))
 (let ((?x1366 (* ?x1687 ?x9214)))
 (let ((?x2249 (- 7.0)))
 (let ((?x1358 (* ?x2249 |v15:2|)))
 (let ((?x7209 (+ (* (- 16.0) |v3:14|) (* (- 16.0) |v0:17|))))
 (let ((?x589 (+ (+ (+ (+ (+ ?x7209 ?x1358) (* (- 19.0) (rval2 |v7:10_st|))) |v13:4|) ?x1366) ?x8911)))
 (let ((?x4592 (- 4.0)))
 (let ((?x2969 (* ?x4592 |v2:15|)))
 (let ((?x7091 (- 6.0)))
 (let ((?x8714 (* ?x7091 |v5:12|)))
 (let ((?x8168 (+ (+ (+ (* 7.0 ?x9214) (* (- 12.0) ?x4383)) (* 2.0 |v1:16|)) ?x8714)))
 (let (($x1029 (<= (+ (+ (+ ?x8168 ?x2969) (* (- 17.0) |v13:4|)) (* 13.0 |v14:3|)) 18.0)))
 (let ((?x7046 (* 0.0 |v17:0|)))
 (let ((?x212 (- 20.0)))
 (let ((?x5063 (* ?x212 |v5:12|)))
 (let ((?x5360 (* 17.0 |v1:16|)))
 (let ((?x4374 (+ (+ (+ (* (- 8.0) |v16:1|) (* 7.0 |v15:2|)) (* 10.0 |v0:17|)) ?x5360)))
 (let ((?x2594 (* 20.0 ?x9214)))
 (let ((?x7919 (- 2.0)))
 (let ((?x5559 (* ?x7919 |v15:2|)))
 (let ((?x7666 (* ?x7876 |v2:15|)))
 (let ((?x2306 (+ (+ (+ (+ (* 19.0 ?x7358) (* 3.0 |v12:5|)) (* 9.0 ?x4383)) ?x7666) ?x5559)))
 (let (($x6266 (and (<= (+ (+ ?x2306 (* (- 10.0) ?x7358)) ?x2594) 8.0) (<= (+ (+ (+ ?x4374 ?x7046) ?x5063) ?x7046) 11.0))))
 (let ((?x1069 (* 15.0 ?x4383)))
 (let ((?x3197 (* 6.0 ?x7358)))
 (let ((?x1354 (+ (+ (+ (+ (* ?x2249 ?x9214) (* ?x7091 |v0:17|)) (* 13.0 |v3:14|)) ?x3197) ?x1069)))
 (let ((?x7588 (* 12.0 |v12:5|)))
 (let ((?x4265 (* 10.0 |v5:12|)))
 (let ((?x5791 (* 9.0 ?x3704)))
 (let ((?x7368 (+ (+ (+ (+ (* 2.0 |v13:4|) |v14:3|) (* ?x5786 (rval2 |v11:6_st|))) ?x5791) ?x4265)))
 (let (($x1707 (or (<= (+ (+ ?x7368 ?x7588) (* (- 8.0) ?x3704)) 10.0) (<= (+ (+ ?x1354 (* ?x212 (rval2 |v11:6_st|))) (* 3.0 |v14:3|)) ?x5786))))
 (let ((?x4722 (* 3.0 |v5:12|)))
 (let ((?x9308 (- 1.0)))
 (let ((?x7791 (* ?x9308 |v0:17|)))
 (let ((?x6484 (* 15.0 |v4:13|)))
 (let ((?x4368 (* 10.0 |v3:14|)))
 (let ((?x7055 (+ (+ (+ (+ (* (- 15.0) |v13:4|) (* ?x4592 |v0:17|)) (* 5.0 |v13:4|)) ?x4368) ?x6484)))
 (let ((?x5828 (rval2 |v11:6_st|)))
 (let ((?x1706 (* 13.0 ?x5828)))
 (let ((?x7878 (- 13.0)))
 (let ((?x5687 (* ?x7878 ?x7358)))
 (let ((?x1456 (+ (+ (+ (* 11.0 ?x4383) (* 20.0 |v4:13|)) (* (- 15.0) ?x4383)) ?x5687)))
 (let (($x8457 (or (<= (+ (+ (+ ?x1456 ?x1706) (* ?x5786 |v15:2|)) ?x7791) ?x5786) (<= (+ (+ ?x7055 ?x7791) ?x4722) 14.0))))
 (let ((?x7122 (- 17.0)))
 (let ((?x7006 (* ?x4592 |v5:12|)))
 (let ((?x2577 (* 9.0 |v3:14|)))
 (let ((?x5983 (* 5.0 |v12:5|)))
 (let ((?x9115 (+ (+ (+ (* 12.0 (rval2 |v7:10_st|)) (* (- 8.0) |v15:2|)) (* 6.0 |v13:4|)) ?x5983)))
 (let ((?x1927 (- 16.0)))
 (let ((?x3501 (* ?x1927 |v15:2|)))
 (let ((?x5509 (* 6.0 |v2:15|)))
 (let ((?x6780 (* 2.0 |v2:15|)))
 (let ((?x2271 (- 11.0)))
 (let ((?x2371 (* ?x2271 |v16:1|)))
 (let ((?x2201 (+ (+ (+ (* 13.0 ?x9214) (* (- 19.0) ?x3704)) (* 18.0 ?x9214)) ?x2371)))
 (let (($x7078 (and (<= (+ (+ (+ ?x2201 ?x6780) ?x5509) ?x3501) ?x4592) (<= (+ (+ (+ ?x9115 ?x2577) (* (- 8.0) ?x4383)) ?x7006) ?x7122))))
 (let ((?x8085 (* 6.0 ?x4383)))
 (let ((?x4597 (+ (+ (+ (+ (* 4.0 |v17:0|) (* (- 3.0) ?x9214)) (* ?x7122 ?x7358)) |v5:12|) ?x7588)))
 (let ((?x2793 (* 9.0 |v17:0|)))
 (let ((?x9046 (- 19.0)))
 (let ((?x687 (* ?x9046 |v1:16|)))
 (let ((?x1438 (* 12.0 ?x9214)))
 (let ((?x6950 (+ (+ (+ (+ ?x5509 (* 5.0 |v3:14|)) (* 10.0 ?x4383)) (* ?x1687 |v4:13|)) ?x1438)))
 (let (($x179 (or (<= (+ (+ ?x6950 ?x687) ?x2793) 14.0) (<= (+ (+ ?x4597 (* (- 15.0) |v16:1|)) ?x8085) 2.0))))
 (let (($x5458 (or (or $x179 (and $x7078 $x8457)) (or (and $x1707 $x6266) (or (and $x1029 (<= ?x589 ?x5786)) $x4954)))))
 (let ((?x8747 (* 9.0 |v13:4|)))
 (let ((?x6363 (+ (+ (+ ?x1069 (* (- 12.0) (rval2 |v7:10_st|))) (* ?x2249 |v4:13|)) (* 13.0 |v17:0|))))
 (let ((?x3558 (- 8.0)))
 (let ((?x250 (* ?x3558 |v2:15|)))
 (let ((?x7279 (* 7.0 ?x9214)))
 (let ((?x7190 (+ (+ (+ (+ (* ?x2249 |v5:12|) ?x4788) (* 12.0 |v14:3|)) (* ?x3558 |v1:16|)) ?x7279)))
 (let (($x6486 (or (<= (+ (+ ?x7190 ?x2577) ?x250) ?x7878) (<= (+ (+ (+ ?x6363 ?x8747) (* ?x7122 |v17:0|)) ?x3197) ?x7122))))
 (let ((?x3199 (* 14.0 |v2:15|)))
 (let ((?x2423 (* 9.0 |v15:2|)))
 (let ((?x4928 (* ?x1927 |v13:4|)))
 (let ((?x5470 (rval2 |v7:10_st|)))
 (let ((?x2391 (* 2.0 ?x5470)))
 (let ((?x1582 (+ (+ (+ (+ (* 8.0 |v13:4|) (* (- 15.0) ?x7358)) (* ?x7876 |v14:3|)) ?x2391) ?x4928)))
 (let ((?x4882 (* ?x3558 |v15:2|)))
 (let ((?x2006 (* 10.0 |v4:13|)))
 (let ((?x7344 (+ (+ (+ (* ?x7878 ?x9214) (* ?x1687 ?x5828)) (* 7.0 ?x4383)) (* ?x7091 |v12:5|))))
 (let (($x3729 (and (<= (+ (+ (+ ?x7344 (* 16.0 ?x5828)) ?x2006) ?x4882) 7.0) (<= (+ (+ ?x1582 ?x2423) ?x3199) ?x9308))))
 (let ((?x7493 (* 4.0 |v5:12|)))
 (let ((?x1569 (* 13.0 |v2:15|)))
 (let ((?x8832 (+ (+ (+ (+ (* 11.0 |v14:3|) (* ?x5786 |v17:0|)) (* ?x3558 |v17:0|)) ?x5559) ?x1569)))
 (let ((?x5777 (* 10.0 |v0:17|)))
 (let ((?x3570 (* ?x9308 |v5:12|)))
 (let ((?x4022 (* 18.0 |v16:1|)))
 (let ((?x7752 (* ?x3237 |v16:1|)))
 (let ((?x1061 (+ (+ (+ (+ (* 13.0 |v15:2|) (* ?x9046 |v17:0|)) (* (- 10.0) |v14:3|)) ?x7752) ?x4022)))
 (let (($x8875 (and (<= (+ (+ ?x1061 ?x3570) ?x5777) 19.0) (<= (+ (+ ?x8832 ?x7493) (* (- 12.0) |v13:4|)) 14.0))))
 (let ((?x4097 (* ?x3558 |v3:14|)))
 (let ((?x4688 (* ?x1687 |v4:13|)))
 (let ((?x8350 (* 6.0 ?x5470)))
 (let ((?x656 (+ (+ (+ (+ (* 2.0 ?x4383) (* (- 15.0) ?x9214)) (* ?x2249 |v5:12|)) ?x3199) ?x8350)))
 (let ((?x3684 (- 12.0)))
 (let ((?x2268 (* ?x9308 |v2:15|)))
 (let ((?x1859 (* ?x2249 |v13:4|)))
 (let ((?x4461 (* ?x3237 ?x3704)))
 (let ((?x6435 (+ (+ (+ (+ (* ?x7091 |v3:14|) (* 5.0 |v1:16|)) ?x4928) (* 11.0 |v14:3|)) ?x4461)))
 (let (($x1766 (and (<= (+ (+ ?x6435 ?x1859) ?x2268) ?x3684) (<= (+ (+ ?x656 ?x4688) ?x4097) 6.0))))
 (let ((?x5691 (* 5.0 |v16:1|)))
 (let ((?x7306 (* ?x9308 |v4:13|)))
 (let ((?x6080 (* 0.0 |v1:16|)))
 (let ((?x4232 (- 15.0)))
 (let ((?x2551 (* ?x4232 |v0:17|)))
 (let ((?x4939 (+ (+ (+ (+ (* ?x3558 ?x5470) (* 2.0 |v1:16|)) (* 9.0 |v12:5|)) ?x2551) ?x6080)))
 (let ((?x4608 (* ?x4592 ?x5470)))
 (let ((?x7092 (* 9.0 ?x5470)))
 (let ((?x3564 (* ?x2271 |v0:17|)))
 (let ((?x6451 (* ?x1687 |v3:14|)))
 (let ((?x845 (+ (+ (+ (+ (* 7.0 |v1:16|) (* 14.0 ?x7358)) (* ?x3237 |v14:3|)) ?x6451) ?x3564)))
 (let (($x9491 (and (<= (+ (+ ?x845 ?x7092) ?x4608) 8.0) (<= (+ (+ ?x4939 ?x7306) ?x5691) 17.0))))
 (let ((?x8835 (* 13.0 ?x7358)))
 (let ((?x2395 (* ?x4232 |v2:15|)))
 (let ((?x4485 (+ (+ (+ (+ |v15:2| (* ?x5786 ?x7358)) (* 18.0 |v0:17|)) (* 11.0 |v0:17|)) ?x6484)))
 (let ((?x7925 (- 3.0)))
 (let ((?x5239 (* 12.0 |v16:1|)))
 (let ((?x8740 (* ?x9046 |v16:1|)))
 (let ((?x6240 (+ (+ (+ (+ ?x9269 (* ?x9046 |v15:2|)) (* ?x9046 |v5:12|)) (* ?x7122 |v2:15|)) ?x8740)))
 (let (($x912 (or (<= (+ (+ ?x6240 ?x5687) ?x5239) ?x7925) (<= (+ (+ ?x4485 ?x2395) ?x8835) ?x9046))))
 (let ((?x6438 (* ?x2249 ?x9214)))
 (let ((?x5506 (* 17.0 |v5:12|)))
 (let ((?x105 (+ (+ (+ (+ ?x7791 (* 14.0 |v0:17|)) (* 5.0 ?x5470)) (* 4.0 ?x5828)) (* ?x1927 ?x9214))))
 (let ((?x5929 (* 10.0 |v1:16|)))
 (let ((?x2770 (* 2.0 |v13:4|)))
 (let ((?x2369 (* 4.0 ?x5828)))
 (let ((?x847 (+ (+ (+ (+ (* ?x7876 |v12:5|) (* 12.0 |v4:13|)) ?x4461) (* ?x3684 ?x7358)) ?x2369)))
 (let (($x7648 (or (<= (+ (+ ?x847 ?x2770) ?x5929) ?x1927) (<= (+ (+ ?x105 ?x5506) ?x6438) ?x4232))))
 (let ((?x3504 (* ?x3558 |v12:5|)))
 (let ((?x2233 (* 7.0 |v16:1|)))
 (let ((?x5276 (+ (+ (+ (* 0.0 |v4:13|) (* ?x4592 |v13:4|)) (* ?x212 ?x9214)) (* ?x3237 ?x5470))))
 (let (($x6003 (or (or (<= (+ (+ (+ ?x5276 ?x1358) ?x2233) ?x3504) ?x3684) $x7648) (and $x912 $x9491))))
 (let (($x3231 (and (or (and $x6003 (and (and $x1766 $x8875) (or $x3729 $x6486))) $x5458) (<= (+ (+ (+ ?x6341 ?x4788) ?x8494) ?x9311) 8.0))))
 (let ((?x7426 (* 7.0 |v15:2|)))
 (let ((?x3845 (+ (+ (+ (+ |v0:17| (* 9.0 |v0:17|)) (* 2.0 ?x3704)) (* ?x4232 ?x5470)) (* ?x5786 ?x4383))))
 (let ((?x1956 (* 18.0 |v17:0|)))
 (let ((?x4898 (* 12.0 |v1:16|)))
 (let ((?x2009 (+ (+ (+ (+ |v5:12| (* 20.0 |v0:17|)) (* ?x7122 |v15:2|)) (* 10.0 ?x4383)) (* ?x3237 |v15:2|))))
 (let ((?x2742 (* 0.0 |v0:17|)))
 (let ((?x8417 (* 15.0 |v17:0|)))
 (let ((?x7142 (* 13.0 ?x9214)))
 (let ((?x7979 (+ (+ (+ (+ (* 10.0 ?x3704) (* 2.0 |v0:17|)) (* 7.0 ?x4383)) ?x7142) ?x8417)))
 (let (($x8359 (or (<= (+ (+ ?x7979 ?x2742) (* 4.0 ?x3704)) ?x5786) (<= (+ (+ ?x2009 ?x4898) ?x1956) 2.0))))
 (let ((?x8220 (* 17.0 |v12:5|)))
 (let ((?x5137 (* ?x7925 |v5:12|)))
 (let ((?x5170 (+ (+ (+ (+ (* 12.0 |v4:13|) (* 19.0 |v4:13|)) |v12:5|) (* ?x7876 ?x7358)) ?x5137)))
 (let ((?x2691 (* 15.0 |v15:2|)))
 (let ((?x7799 (+ (+ (+ (+ (* 4.0 |v15:2|) (* ?x4592 |v15:2|)) (* 20.0 |v3:14|)) ?x4608) ?x1438)))
 (let (($x8641 (and (<= (+ (+ ?x7799 ?x8350) ?x2691) 1.0) (<= (+ (+ ?x5170 ?x8220) ?x4461) ?x7122))))
 (let ((?x2149 (* ?x3684 |v0:17|)))
 (let ((?x5761 (* ?x7878 |v5:12|)))
 (let ((?x177 (+ (+ (+ (+ (* 19.0 |v13:4|) (* ?x1687 |v17:0|)) (* ?x4592 |v15:2|)) ?x5761) ?x4928)))
 (let ((?x2510 (* 4.0 |v16:1|)))
 (let ((?x5567 (* 14.0 ?x4383)))
 (let ((?x8309 (+ (+ (+ (+ (* 17.0 |v17:0|) ?x4882) (* 14.0 |v5:12|)) (* ?x7091 ?x4383)) ?x5567)))
 (let (($x2005 (or (<= (+ (+ ?x8309 (* 2.0 ?x5828)) ?x2510) ?x2271) (<= (+ (+ ?x177 ?x8220) ?x2149) ?x2271))))
 (let ((?x2458 (* 14.0 |v13:4|)))
 (let ((?x6849 (+ (+ (+ (+ (* 10.0 |v14:3|) ?x8835) (* 17.0 |v15:2|)) (* ?x9046 ?x7358)) (* ?x7919 ?x5828))))
 (let ((?x4175 (* ?x7925 |v1:16|)))
 (let ((?x3718 (* ?x212 |v2:15|)))
 (let ((?x8083 (+ (+ (+ (+ (* ?x3684 |v3:14|) (* 3.0 |v17:0|)) ?x4688) (* ?x5786 ?x9214)) ?x3718)))
 (let (($x5059 (and (<= (+ (+ ?x8083 ?x7006) ?x4175) ?x212) (<= (+ (+ ?x6849 ?x2458) ?x3199) 19.0))))
 (let (($x2558 (or (or (and $x5059 $x2005) (and $x8641 $x8359)) (<= (+ (+ ?x3845 ?x7426) (* 0.0 |v16:1|)) 5.0))))
 (let ((?x375 (* 9.0 ?x4383)))
 (let ((?x1676 (* ?x9046 |v3:14|)))
 (let ((?x8473 (* 13.0 |v4:13|)))
 (let ((?x7234 (+ (+ (+ (+ (* 11.0 ?x5828) (* 18.0 ?x3704)) (* ?x4232 ?x3704)) ?x8473) ?x1676)))
 (let ((?x5967 (- 10.0)))
 (let ((?x939 (* 13.0 |v3:14|)))
 (let ((?x5223 (* 11.0 |v0:17|)))
 (let ((?x7161 (+ (+ (+ (* 5.0 |v14:3|) (* 19.0 ?x9214)) (* ?x9046 |v4:13|)) (* ?x5967 |v12:5|))))
 (let (($x7414 (and (<= (+ (+ (+ ?x7161 ?x2369) ?x5223) ?x939) ?x5967) (<= (+ (+ ?x7234 ?x3504) ?x375) 14.0))))
 (let ((?x1329 (* 3.0 |v16:1|)))
 (let ((?x8389 (* 3.0 ?x5828)))
 (let ((?x7655 (* 12.0 |v0:17|)))
 (let ((?x3448 (+ (+ (+ (+ (+ (* ?x2249 |v1:16|) ?x4383) ?x2793) (* ?x3237 |v13:4|)) ?x7655) ?x8389)))
 (let ((?x3942 (* ?x1927 ?x7358)))
 (let ((?x4783 (* ?x1687 ?x5828)))
 (let ((?x3534 (+ (+ (+ (+ ?x5137 (* 4.0 |v4:13|)) (* 19.0 |v16:1|)) (* 8.0 |v2:15|)) ?x4783)))
 (let (($x9158 (and (or (<= (+ (+ ?x3534 ?x3942) ?x1366) ?x1687) (<= (+ ?x3448 ?x1329) ?x1927)) $x7414)))
 (let ((?x6832 (* 3.0 |v3:14|)))
 (let ((?x3837 (+ (+ (+ (+ (* 2.0 |v5:12|) ?x4265) (* ?x2249 |v16:1|)) (* ?x4592 |v14:3|)) (* ?x7122 |v12:5|))))
 (let ((?x3230 (* ?x7878 |v3:14|)))
 (let ((?x7996 (* ?x4232 |v13:4|)))
 (let ((?x3615 (* ?x2249 ?x7358)))
 (let ((?x6320 (+ (+ (+ (+ (* ?x4592 |v1:16|) (* 10.0 |v17:0|)) (* 0.0 |v13:4|)) ?x3615) ?x7996)))
 (let (($x8455 (and (<= (+ (+ ?x6320 ?x3230) ?x8473) ?x7878) (<= (+ (+ ?x3837 ?x6072) ?x6832) 10.0))))
 (let ((?x6193 (* 6.0 |v5:12|)))
 (let ((?x186 (* ?x3684 |v5:12|)))
 (let ((?x5480 (* 20.0 ?x7358)))
 (let ((?x3303 (+ (+ (+ (+ (* ?x5786 |v13:4|) (* 4.0 |v3:14|)) (* 19.0 ?x9214)) ?x2268) ?x5480)))
 (let ((?x5310 (* 18.0 |v2:15|)))
 (let ((?x1053 (* 16.0 |v2:15|)))
 (let ((?x1479 (* 16.0 |v14:3|)))
 (let ((?x3601 (+ (+ (* 19.0 |v0:17|) (* 20.0 |v4:13|)) (* ?x7122 |v3:14|))))
 (let (($x8855 (and (<= (+ (+ (+ (+ ?x3601 ?x1479) ?x1053) ?x5310) ?x8747) 7.0) (<= (+ (+ ?x3303 ?x186) ?x6193) 11.0))))
 (let ((?x7189 (* 10.0 ?x5828)))
 (let ((?x7523 (* ?x9308 |v12:5|)))
 (let ((?x7869 (+ (+ (+ (+ ?x3942 (* 12.0 ?x3704)) (* 19.0 |v0:17|)) (* ?x7091 ?x5828)) ?x7523)))
 (let ((?x5494 (* ?x7122 |v5:12|)))
 (let ((?x4570 (* ?x9046 |v12:5|)))
 (let ((?x6299 (+ (+ (+ (+ (* ?x2271 |v4:13|) ?x8494) (* 11.0 |v12:5|)) (* ?x3684 |v15:2|)) ?x4570)))
 (let (($x8276 (or (<= (+ (+ ?x6299 (* ?x7878 |v12:5|)) ?x5494) 4.0) (<= (+ (+ ?x7869 (* ?x7878 |v15:2|)) ?x7189) ?x5967))))
 (let ((?x8460 (* 16.0 ?x9214)))
 (let ((?x3105 (+ (+ (+ (+ (+ (* 15.0 |v5:12|) ?x3718) ?x5480) (* ?x7878 |v1:16|)) ?x1358) (* 0.0 ?x5470))))
 (let ((?x1518 (* 20.0 |v12:5|)))
 (let ((?x1210 (* 19.0 |v13:4|)))
 (let ((?x4434 (+ (+ (+ (+ (* 19.0 |v3:14|) (* 14.0 ?x9214)) (* 8.0 |v3:14|)) ?x1210) ?x3501)))
 (let (($x6172 (or (and (<= (+ (+ ?x4434 ?x4097) ?x1518) ?x4232) (<= (+ ?x3105 ?x8460) ?x4232)) $x8276)))
 (let ((?x2328 (* ?x7091 |v3:14|)))
 (let ((?x9322 (+ (+ (+ (+ (* 14.0 |v12:5|) ?x5470) (* 17.0 |v2:15|)) (* 17.0 |v4:13|)) ?x2328)))
 (let ((?x4727 (* ?x1927 |v14:3|)))
 (let ((?x2585 (* 5.0 ?x9214)))
 (let ((?x3924 (+ (+ (+ (+ (* 17.0 ?x3704) (* ?x7919 |v13:4|)) (* ?x5967 |v4:13|)) ?x1569) ?x2585)))
 (let (($x2250 (and (<= (+ (+ ?x3924 ?x4727) (* ?x7876 |v16:1|)) ?x9046) (<= (+ (+ ?x9322 ?x8747) (* ?x3237 |v17:0|)) 18.0))))
 (let ((?x2811 (* ?x3684 |v1:16|)))
 (let ((?x3557 (+ (+ (+ (* ?x7091 |v16:1|) (* 20.0 |v15:2|)) (* ?x1927 |v4:13|)) (* ?x7122 ?x5470))))
 (let ((?x2611 (* 17.0 |v15:2|)))
 (let ((?x2427 (+ (+ (+ (+ (+ ?x6072 (* 8.0 |v3:14|)) ?x4788) ?x3199) (* 15.0 |v5:12|)) ?x5687)))
 (let (($x476 (and (<= (+ ?x2427 ?x2611) 5.0) (<= (+ (+ (+ ?x3557 ?x2811) (* 14.0 |v15:2|)) ?x5494) ?x1927))))
 (let ((?x6182 (* 7.0 |v5:12|)))
 (let ((?x6331 (+ (+ (+ (+ (* ?x7091 ?x5470) (* ?x1927 ?x3704)) (* 0.0 |v2:15|)) ?x8220) ?x8389)))
 (let ((?x5818 (* 8.0 |v2:15|)))
 (let ((?x1131 (* 6.0 |v13:4|)))
 (let ((?x2837 (+ (+ (+ (+ (+ (* 18.0 ?x5828) ?x9269) (* ?x9308 ?x9214)) ?x8835) ?x1131) ?x5818)))
 (let (($x8289 (or (<= (+ ?x2837 (* ?x7091 |v15:2|)) 3.0) (<= (+ (+ ?x6331 (* ?x212 |v13:4|)) ?x6182) ?x1927))))
 (let ((?x5039 (* 10.0 |v13:4|)))
 (let ((?x7806 (* ?x4592 |v1:16|)))
 (let ((?x1597 (+ (+ (+ (+ (* 4.0 |v3:14|) ?x4727) (* 9.0 |v4:13|)) (* 20.0 ?x4383)) (* ?x7122 |v16:1|))))
 (let ((?x6098 (* ?x4232 ?x9214)))
 (let ((?x6376 (+ (+ (+ (+ (* 19.0 ?x5828) (* ?x5786 |v16:1|)) (* ?x2249 |v4:13|)) ?x5567) |v16:1|)))
 (let (($x6594 (and (<= (+ (+ ?x6376 ?x1569) ?x6098) ?x7925) (<= (+ (+ ?x1597 ?x7806) ?x5039) 14.0))))
 (let ((?x2884 (* 15.0 |v1:16|)))
 (let ((?x6301 (* 16.0 ?x3704)))
 (let ((?x4551 (+ (+ (+ (+ (* ?x2249 |v1:16|) (* 11.0 |v13:4|)) (* ?x4592 ?x9214)) ?x6301) (* ?x1927 ?x4383))))
 (let ((?x2502 (+ (+ (+ (* ?x1687 |v16:1|) (* ?x9046 |v17:0|)) (* 19.0 |v14:3|)) (* ?x3558 ?x7358))))
 (let ((?x5890 (* 20.0 ?x5828)))
 (let ((?x4007 (* ?x7925 |v0:17|)))
 (let ((?x7301 (* 9.0 |v4:13|)))
 (let ((?x1092 (+ (+ (+ (+ ?x1131 (* 17.0 |v3:14|)) (* ?x7925 ?x5470)) (* ?x7091 |v16:1|)) ?x7301)))
 (let (($x3049 (and (<= (+ (+ ?x1092 ?x4007) ?x5890) ?x4232) (<= (+ (+ (+ ?x2502 (* ?x7878 ?x4383)) (* ?x7091 ?x3704)) ?x5983) 11.0))))
 (let ((?x6930 (* 13.0 |v0:17|)))
 (let ((?x8627 (* ?x7876 |v5:12|)))
 (let ((?x3800 (+ (+ (+ (+ (* 12.0 ?x4383) ?x2551) ?x7493) (* ?x2271 |v17:0|)) (* ?x4592 |v12:5|))))
 (let ((?x6269 (* 16.0 |v0:17|)))
 (let ((?x3768 (* 6.0 |v16:1|)))
 (let ((?x9331 (+ (+ (+ (+ (+ ?x2770 ?x5239) (* 4.0 |v3:14|)) ?x3230) (* ?x1687 ?x3704)) ?x3768)))
 (let ((?x8308 (* ?x7876 |v0:17|)))
 (let ((?x7805 (* ?x7122 |v14:3|)))
 (let ((?x6113 (+ (+ (+ (+ (* 5.0 |v15:2|) (* ?x9046 |v0:17|)) ?x2371) (* ?x7925 ?x5470)) ?x7805)))
 (let (($x8958 (or (<= (+ (+ ?x6113 (* ?x4232 |v17:0|)) ?x8308) ?x1687) (<= (+ ?x9331 ?x6269) ?x3558))))
 (let ((?x4910 (* 7.0 |v0:17|)))
 (let ((?x4063 (+ (+ (+ (* 3.0 |v13:4|) (* 5.0 ?x3704)) (* ?x2249 |v14:3|)) (* ?x5967 |v15:2|))))
 (let ((?x5739 (* 20.0 |v4:13|)))
 (let ((?x5104 (* ?x2271 |v1:16|)))
 (let ((?x8376 (+ (+ (+ (+ (+ ?x6438 (* 4.0 |v3:14|)) (* 14.0 |v0:17|)) ?x1053) ?x5137) ?x5104)))
 (let (($x3639 (or (<= (+ ?x8376 ?x5739) 8.0) (<= (+ (+ (+ ?x4063 (* ?x3684 |v17:0|)) ?x8740) ?x4910) 3.0))))
 (let ((?x7324 (* 15.0 ?x9214)))
 (let ((?x2563 (+ (+ (+ (+ (+ ?x7092 ?x1859) (* ?x7925 |v4:13|)) ?x2371) (* ?x5786 |v4:13|)) ?x7324)))
 (let ((?x2700 (* 4.0 |v3:14|)))
 (let ((?x802 (* 13.0 |v12:5|)))
 (let ((?x3502 (* 11.0 |v14:3|)))
 (let ((?x8979 (+ (+ (+ (+ (* 5.0 ?x4383) (* ?x5967 |v13:4|)) (* 2.0 |v4:13|)) ?x9311) ?x3502)))
 (let (($x5233 (and (and (<= (+ (+ ?x8979 ?x802) ?x2700) ?x7878) (<= (+ ?x2563 ?x3615) ?x7878)) $x3639)))
 (let (($x7249 (or (or $x5233 (or $x8958 (<= (+ (+ ?x3800 ?x8627) ?x6930) 6.0))) (and (and $x3049 (<= (+ (+ ?x4551 ?x2884) ?x7752) ?x3684)) (and $x6594 $x8289)))))
 (let ((?x7081 (* ?x3684 ?x4383)))
 (let ((?x3035 (* 16.0 |v1:16|)))
 (let ((?x8450 (+ (+ (+ (+ (* 8.0 |v3:14|) (* ?x5786 ?x3704)) ?x7523) (* 7.0 |v14:3|)) ?x3035)))
 (let ((?x4094 (* 5.0 |v15:2|)))
 (let ((?x6009 (+ (+ (+ (* 17.0 |v13:4|) (* ?x3684 |v14:3|)) (* ?x3558 |v17:0|)) (* 9.0 |v16:1|))))
 (let (($x2217 (and (<= (+ (+ (+ ?x6009 (* ?x7122 ?x9214)) ?x4094) (* ?x7878 |v16:1|)) ?x7091) (<= (+ (+ ?x8450 ?x2395) ?x7081) ?x9046))))
 (let ((?x7050 (* ?x3684 |v3:14|)))
 (let ((?x8446 (+ (+ (+ (+ (* 18.0 |v14:3|) ?x4570) (* ?x7878 |v0:17|)) (* 11.0 ?x9214)) (* ?x7878 ?x5828))))
 (let ((?x3641 (* 13.0 ?x5470)))
 (let ((?x1980 (* 12.0 |v4:13|)))
 (let ((?x9216 (+ (+ (+ (+ (* ?x5786 |v1:16|) (* 2.0 |v14:3|)) (* 3.0 |v1:16|)) ?x1980) ?x1518)))
 (let (($x2010 (or (<= (+ (+ ?x9216 ?x3641) |v0:17|) ?x7122) (<= (+ (+ ?x8446 (* 14.0 |v16:1|)) ?x7050) 0.0))))
 (let ((?x2302 (* 3.0 ?x4383)))
 (let ((?x1813 (+ (+ (+ (+ (+ ?x6301 (* 9.0 |v2:15|)) ?x2006) ?x6451) (* ?x3684 |v14:3|)) ?x2302)))
 (let ((?x8364 (* 2.0 |v15:2|)))
 (let ((?x8397 (+ (+ (+ (+ (* ?x7091 |v4:13|) (* 10.0 ?x5470)) (* ?x5967 |v17:0|)) ?x8364) ?x8494)))
 (let ((?x9482 (* 5.0 |v5:12|)))
 (let ((?x2105 (* 16.0 |v3:14|)))
 (let ((?x4679 (+ (+ (+ (+ (* 6.0 |v1:16|) (* ?x3237 |v4:13|)) (* 13.0 ?x4383)) ?x7189) (* ?x5786 |v14:3|))))
 (let ((?x6749 (* ?x7091 |v2:15|)))
 (let ((?x960 (* 20.0 |v3:14|)))
 (let ((?x764 (+ (+ (+ (+ (* ?x4232 ?x5470) (* ?x1687 |v12:5|)) ?x4722) (* ?x7925 |v4:13|)) ?x960)))
 (let (($x7860 (or (<= (+ (+ ?x764 ?x6749) ?x2105) 8.0) (<= (+ (+ ?x4679 ?x2105) ?x9482) 0.0))))
 (let (($x3720 (or $x7860 (and (<= (+ (+ ?x8397 ?x7805) ?x4910) ?x1927) (<= (+ ?x1813 ?x8460) 4.0)))))
 (let ((?x3758 (* ?x3237 |v2:15|)))
 (let ((?x4981 (* ?x9046 |v4:13|)))
 (let ((?x4796 (* 16.0 |v5:12|)))
 (let ((?x2595 (+ (+ (+ (+ (* 8.0 |v3:14|) (* ?x7925 |v13:4|)) (* ?x7919 |v16:1|)) ?x4796) ?x4981)))
 (let ((?x6752 (* ?x4232 ?x3704)))
 (let ((?x7308 (* 17.0 ?x3704)))
 (let ((?x4010 (* 10.0 |v15:2|)))
 (let ((?x454 (+ (+ (+ (+ |v16:1| (* ?x5786 |v5:12|)) (* 6.0 |v14:3|)) (* ?x7925 |v2:15|)) ?x4010)))
 (let ((?x9084 (* ?x2249 |v0:17|)))
 (let ((?x1775 (+ (+ (+ (+ (+ (* ?x7876 |v14:3|) ?x4882) (* 9.0 |v14:3|)) ?x5310) ?x1069) ?x9084)))
 (let (($x5099 (and (<= (+ ?x1775 (* 16.0 |v16:1|)) 7.0) (<= (+ (+ ?x454 ?x7308) ?x6752) ?x3684))))
 (let ((?x8149 (* ?x5786 ?x7358)))
 (let ((?x6108 (+ (+ (+ (* 3.0 ?x7358) (* ?x1927 |v12:5|)) (* 12.0 |v5:12|)) (* 16.0 |v13:4|))))
 (let ((?x7671 (* 20.0 |v0:17|)))
 (let ((?x1301 (* 3.0 |v0:17|)))
 (let ((?x9493 (+ (+ (+ (+ (* 13.0 |v13:4|) (* 13.0 |v16:1|)) (* ?x5786 |v12:5|)) ?x1301) ?x8740)))
 (let (($x495 (and (<= (+ (+ ?x9493 ?x7671) ?x2691) ?x5967) (<= (+ (+ (+ ?x6108 ?x8308) |v12:5|) ?x8149) ?x4232))))
 (let (($x563 (and (and (or $x495 $x5099) (<= (+ (+ ?x2595 (* ?x7878 |v14:3|)) ?x3758) 19.0)) (or $x3720 (or $x2010 $x2217)))))
 (let (($x1544 (or (and $x563 $x7249) (or (or (and (or $x476 $x2250) $x6172) (and (and $x8855 $x8455) $x9158)) $x2558))))
 (let (($x4184 (not (= |v6:11_st| (RMk1 val!10097)))))
 (let (($x3947 (not (= |v7:10_st| (RMk1 val!10096)))))
 (let (($x3746 (not (= |v8:9_st| (RMk1 val!10095)))))
 (let (($x3505 (not (= |v9:8_st| (RMk1 val!10094)))))
 (let (($x1202 (not (= |v10:7_st| (RMk1 val!10093)))))
 (let (($x2351 (not (= |v11:6_st| (RMk1 val!10092)))))
 (and $x2351 $x1202 $x3505 $x3746 $x3947 $x4184 (or $x1544 $x3231)))))))))))))))))))))))))))))))))))))))))))))))))))))))))))))))))))))))))))))))))))))))))))))))))))))))))))))))))))))))))))))))))))))))))))))))))))))))))))))))))))))))))))))))))))))))))))))))))))))))))))))))))))))))))))))))))))))))))))))))))))))))))))))))))))))))))))))))))))))))))))))))))))))))))))))))))))))))))))))))))))))))))))))))))))
 )
 )
 )
 )
 )
 )
 )
 )
 )
 )
 )
 )
 )
 )
 )
 )
 )
 )
(check-sat)
